c qkernel_dimacs_v1
c qkernel_version 0.11.0
c criterion odd_Q_even_d_v1
c coordinate_convention interleaved_zx_v1
c integer_carry_rule integer_lift_before_mod_v1
c variables lambda_i select context i, using 0-based context indices in comments
c lambda_var 1 context_index 0
c lambda_var 2 context_index 1
c lambda_var 3 context_index 2
c lambda_var 4 context_index 3
c lambda_var 5 context_index 4
c lambda_var 6 context_index 5
c observable_col 0 IX
c observable_col 1 IZ
c observable_col 2 XI
c observable_col 3 XX
c observable_col 4 XZ
c observable_col 5 YY
c observable_col 6 ZI
c observable_col 7 ZX
c observable_col 8 ZZ
p cnf 15 46
-2 -4 -7 0
-2 4 7 0
2 -4 7 0
2 4 -7 0
-7 0
-1 -5 -8 0
-1 5 8 0
1 -5 8 0
1 5 -8 0
-8 0
-2 -5 -9 0
-2 5 9 0
2 -5 9 0
2 5 -9 0
-9 0
-2 -6 -10 0
-2 6 10 0
2 -6 10 0
2 6 -10 0
-10 0
-3 -5 -11 0
-3 5 11 0
3 -5 11 0
3 5 -11 0
-11 0
-3 -6 -12 0
-3 6 12 0
3 -6 12 0
3 6 -12 0
-12 0
-1 -4 -13 0
-1 4 13 0
1 -4 13 0
1 4 -13 0
-13 0
-3 -4 -14 0
-3 4 14 0
3 -4 14 0
3 4 -14 0
-14 0
-1 -6 -15 0
-1 6 15 0
1 -6 15 0
1 6 -15 0
-15 0
6 0
